CAPACITY = 3;
N_TASKS = 20;
d = [ 5, 1, 1, 2, 5, 5, 3, 3, 4, 4, 5, 1, 5, 3, 2, 3, 5, 2, 4, 1 ];
rr = [ 2, 2, 3, 3, 3, 2, 3, 3, 1, 2, 1, 3, 1, 1, 1, 1, 2, 1, 1, 3];
suc = [ { 10, 19 },
       { 7 },
       { 10, 17 },
       {  },
       { 6 },
       { 16 },
       { 11 },
       { 12 },
       { 12, 15 },
       {  },
       {  },
       {  },
       { 16, 17, 20 },
       {  },
       {  },
       {  },
       {  },
       {  },
       {  },
       {  } ];
